23400
0 1 1 1 1 1 0 1 1 1 1 1 1 1 0 1 1 0 1 0 1 1 1 0 1 1 0 1 0 0
21 10 5 4 25 8 21 18 7 13 8 13 8 2 16 22 16 8 25 5 10 8 27 7 5 10 20 8 25 13 4 13 11 10 1 22 27 27 4 9 11 2 10 21 21 22 27 16 5 9 22 13 8 9 9 21 8 8 13 11 22 13 8 7 13 11 2 10 9 1 20 22 18 10 4 10 12 16 5 13 11 13 10 7 4 21 10 24 11 5 4 13 8 9 4 20 13 24 2 16 11 2 15 10 3 24 27 9 25 9 10 20 16 5 7 10 16 8 7 5 24 20 9 25 9 1 20 3 15 5 10 13 16 7 13 21 18 3 3 25 12 21 15 21 1 24 27 8 7 9